20	13000	3000	1200
4095	697	692
2725	877	702
2478	553	751
2273	700	745
4566	632	590
2184	825	583
2830	674	675
3234	796	689
4836	651	751
3486	591	628
4381	513	700
3149	766	660
2338	837	528
2376	725	582
4283	518	716
3184	545	670
4243	867	642
4050	673	642
4764	579	798
3752	658	728
